param n := 120;
param c := 450
param : V : p w :=
   0	 107	  97
   1	  67	  57
   2	  91	  81
   3	  72	  62
   4	  85	  75
   5	  91	  81
   6	  33	  23
   7	  53	  43
   8	  60	  50
   9	  48	  38
  10	  70	  60
  11	  68	  58
  12	  80	  70
  13	  98	  88
  14	  46	  36
  15	 100	  90
  16	  47	  37
  17	  55	  45
  18	  55	  45
  19	  49	  39
  20	  54	  44
  21	  63	  53
  22	  80	  70
  23	  34	  24
  24	  92	  82
  25	  91	  81
  26	  57	  47
  27	 107	  97
  28	  45	  35
  29	  75	  65
  30	  84	  74
  31	  78	  68
  32	  59	  49
  33	  65	  55
  34	  62	  52
  35	 104	  94
  36	 105	  95
  37	  39	  29
  38	 109	  99
  39	  30	  20
  40	  32	  22
  41	  35	  25
  42	  59	  49
  43	  56	  46
  44	 108	  98
  45	  69	  59
  46	 108	  98
  47	  70	  60
  48	  33	  23
  49	  82	  72
  50	  43	  33
  51	 108	  98
  52	  90	  80
  53	 105	  95
  54	  88	  78
  55	  67	  57
  56	  77	  67
  57	  63	  53
  58	  57	  47
  59	  63	  53
  60	  46	  36
  61	  48	  38
  62	 102	  92
  63	  40	  30
  64	  90	  80
  65	  42	  32
  66	 107	  97
  67	  49	  39
  68	  90	  80
  69	  82	  72
  70	  65	  55
  71	  51	  41
  72	  70	  60
  73	  77	  67
  74	  63	  53
  75	  75	  65
  76	 105	  95
  77	  30	  20
  78	  76	  66
  79	  88	  78
  80	 108	  98
  81	  57	  47
  82	 110	 100
  83	  95	  85
  84	  63	  53
  85	  63	  53
  86	  77	  67
  87	  37	  27
  88	  32	  22
  89	  71	  61
  90	  53	  43
  91	  62	  52
  92	  86	  76
  93	  74	  64
  94	  71	  61
  95	  39	  29
  96	  40	  30
  97	  56	  46
  98	  89	  79
  99	  76	  66
 100	  37	  27
 101	  89	  79
 102	 108	  98
 103	 100	  90
 104	  32	  22
 105	  85	  75
 106	  67	  57
 107	  77	  67
 108	  46	  36
 109	  80	  70
 110	 109	  99
 111	  58	  48
 112	  53	  43
 113	  55	  45
 114	  81	  71
 115	 110	 100
 116	  98	  88
 117	  58	  48
 118	  37	  27
 119	  49	  39
;

set E :=
   0	   3
   0	  14
   0	  24
   0	  28
   0	  32
   0	  40
   0	  42
   0	  43
   0	  64
   0	  84
   0	  87
   0	  88
   0	  91
   0	 117
   1	   3
   1	   4
   1	  10
   1	  18
   1	  41
   1	  65
   1	  77
   1	 106
   1	 107
   1	 115
   2	  18
   2	  30
   2	  34
   2	  37
   2	  41
   2	  42
   2	  44
   2	  50
   2	  58
   2	  71
   2	  74
   2	  79
   2	  99
   2	 112
   3	   5
   3	  22
   3	  36
   3	  60
   3	 105
   3	 118
   3	 119
   4	  11
   4	  13
   4	  17
   4	  41
   4	  51
   4	  71
   4	  75
   4	  83
   4	  94
   4	 102
   4	 105
   4	 118
   5	   6
   5	   8
   5	  14
   5	  18
   5	  20
   5	  21
   5	  32
   5	  35
   5	  63
   5	  73
   5	  81
   5	  92
   5	  94
   6	  18
   6	  19
   6	  22
   6	  29
   6	  35
   6	  38
   6	  45
   6	  47
   6	  51
   6	  67
   6	  89
   6	  91
   6	  94
   6	  99
   6	 113
   6	 117
   7	  11
   7	  17
   7	  31
   7	  57
   7	  70
   7	  81
   7	  83
   7	  91
   7	  99
   7	 107
   8	  14
   8	  15
   8	  27
   8	  28
   8	  29
   8	  36
   8	  40
   8	  42
   8	  56
   8	  58
   8	  77
   8	  95
   8	  99
   9	  25
   9	  28
   9	  32
   9	  65
   9	  70
   9	  76
   9	  82
   9	  83
   9	 102
   9	 105
  10	  31
  10	  66
  10	  73
  10	  74
  10	  75
  10	  93
  10	 105
  10	 116
  11	  24
  11	  32
  11	  37
  11	  41
  11	  47
  11	  48
  11	  52
  11	  63
  11	  71
  11	  85
  12	  13
  12	  18
  12	  29
  12	  48
  12	  56
  12	  74
  12	  84
  12	  92
  12	  95
  12	 102
  12	 106
  12	 110
  13	  15
  13	  18
  13	  21
  13	  30
  13	  31
  13	  50
  13	  79
  13	  81
  13	  83
  13	  86
  13	  95
  13	 102
  13	 109
  14	  17
  14	  23
  14	  29
  14	  35
  14	  40
  14	  45
  14	  62
  14	  67
  14	  70
  14	 109
  14	 112
  14	 119
  15	  17
  15	  30
  15	  37
  15	  52
  15	  86
  15	  88
  15	  93
  15	  98
  15	  99
  15	 109
  15	 116
  16	  23
  16	  33
  16	  39
  16	  40
  16	  69
  16	  81
  16	  82
  16	  84
  16	  86
  16	  96
  16	 115
  17	  48
  17	  67
  17	  68
  17	  69
  17	  92
  17	 119
  18	  38
  18	  44
  18	  47
  18	  52
  18	  53
  18	  57
  18	  60
  18	  64
  18	  65
  18	 104
  18	 108
  18	 109
  19	  29
  19	  32
  19	  37
  19	  42
  19	  50
  19	  54
  19	  58
  19	  64
  19	  97
  19	 100
  19	 101
  19	 102
  20	  23
  20	  45
  20	  58
  20	  63
  20	  69
  20	  73
  20	  95
  21	  37
  21	  76
  21	  82
  21	 100
  21	 110
  22	  29
  22	  42
  22	  73
  22	  90
  22	  94
  22	 108
  22	 115
  23	  33
  23	  36
  23	  39
  23	  50
  23	  55
  23	  56
  23	  58
  23	  64
  23	  75
  23	  79
  23	  87
  23	 117
  24	  25
  24	  28
  24	  29
  24	  30
  24	  31
  24	  32
  24	  40
  24	  41
  24	  46
  24	  54
  24	  58
  24	  86
  24	  88
  25	  29
  25	  32
  25	  39
  25	  70
  25	  76
  25	  80
  25	  95
  25	  97
  25	 100
  25	 106
  26	  33
  26	  57
  26	  62
  26	  72
  26	  75
  26	 103
  26	 107
  26	 109
  26	 116
  26	 117
  27	  29
  27	  32
  27	  59
  27	  61
  27	  69
  27	  85
  28	  30
  28	  31
  28	  42
  28	  48
  28	  69
  28	  71
  28	  72
  28	  94
  28	  95
  28	  96
  28	  97
  28	 100
  28	 109
  28	 112
  29	  39
  29	  46
  29	  49
  29	  52
  29	  88
  29	  93
  29	 102
  29	 110
  29	 114
  29	 117
  30	  81
  30	 107
  30	 116
  30	 117
  31	  45
  31	  68
  31	  80
  31	  87
  31	 103
  31	 114
  31	 118
  32	  43
  32	  51
  32	  75
  32	  77
  32	  85
  32	 106
  32	 108
  33	  42
  33	  44
  33	  51
  33	  63
  33	  76
  33	  80
  33	 107
  33	 116
  34	 108
  35	  38
  35	  40
  35	  64
  35	  66
  35	  69
  35	  71
  35	  83
  35	  91
  35	 107
  35	 108
  36	  48
  36	  51
  36	  96
  36	 100
  36	 103
  36	 106
  36	 109
  36	 110
  36	 118
  37	  39
  37	  47
  37	  61
  37	  72
  37	  77
  37	  81
  37	  85
  37	  86
  37	 111
  37	 118
  38	  42
  38	  57
  38	  62
  38	  70
  38	  71
  38	  73
  38	  81
  38	  89
  38	  94
  38	  97
  38	 114
  39	  52
  39	  53
  39	  61
  39	  64
  39	  74
  39	  77
  39	  79
  39	  81
  39	  83
  39	  87
  39	  92
  39	 106
  40	  41
  40	  43
  40	  53
  40	  63
  40	  76
  40	 118
  41	  45
  41	  50
  41	  57
  41	  65
  41	  77
  41	  91
  41	  94
  42	  68
  42	  76
  42	  84
  42	 102
  42	 103
  42	 115
  43	  54
  43	  62
  43	  75
  43	  80
  43	  87
  43	  89
  43	  92
  43	 100
  43	 113
  43	 114
  43	 119
  44	  54
  44	  62
  44	  64
  44	  76
  44	 116
  44	 117
  45	  66
  45	  77
  45	  96
  45	 101
  45	 113
  46	  49
  46	  55
  46	  57
  46	  74
  46	  75
  46	  89
  46	  95
  46	 101
  47	  68
  47	  94
  47	  98
  47	 104
  47	 111
  47	 112
  47	 115
  47	 119
  48	  49
  48	  69
  48	  75
  48	  92
  48	  99
  48	 101
  48	 105
  48	 113
  49	  54
  49	  59
  49	  60
  49	  66
  49	  69
  49	  70
  49	  81
  49	  84
  49	  87
  49	  89
  49	  93
  49	 117
  50	  68
  50	  77
  50	  88
  50	  98
  50	 116
  50	 119
  51	  55
  51	  64
  51	  67
  51	  92
  52	  56
  52	  78
  52	  79
  52	  81
  52	  91
  52	  95
  52	 113
  52	 114
  53	  55
  53	  76
  53	  83
  53	  90
  53	  95
  53	 106
  54	  55
  54	  56
  54	  63
  54	  77
  54	  92
  54	  97
  54	 115
  55	  65
  55	  68
  55	  71
  55	  72
  55	  81
  55	  90
  55	 112
  55	 118
  56	  59
  56	  70
  56	  79
  57	  71
  57	  75
  57	  93
  57	  98
  57	 109
  57	 113
  57	 115
  58	  60
  58	  75
  58	  83
  58	 100
  58	 113
  59	  77
  59	  79
  59	  80
  59	  83
  59	  85
  59	  88
  59	  89
  59	  91
  59	  92
  59	 101
  59	 107
  59	 108
  59	 110
  60	  62
  60	  81
  60	  82
  60	  85
  60	 101
  60	 113
  61	  65
  61	  77
  61	  79
  61	 101
  61	 107
  61	 111
  61	 115
  61	 116
  62	  73
  62	  85
  63	  72
  63	  78
  63	  81
  63	  90
  63	 100
  63	 109
  63	 119
  64	  76
  64	  82
  64	  94
  64	  98
  64	  99
  64	 102
  64	 112
  65	  73
  65	  75
  65	  76
  65	  83
  65	  90
  65	 116
  65	 119
  66	  80
  66	  86
  66	  88
  66	  89
  66	  92
  66	 103
  67	  69
  67	  83
  67	  89
  68	  71
  68	  78
  69	  99
  69	 101
  69	 105
  69	 106
  69	 108
  69	 111
  70	  75
  70	  77
  70	  97
  70	 106
  70	 111
  71	  74
  71	  79
  71	  94
  71	  96
  71	 109
  72	  74
  72	  80
  72	  85
  72	  90
  72	  91
  72	 109
  73	  75
  73	  95
  73	 110
  74	  82
  76	  82
  76	  97
  76	 102
  77	  81
  77	  82
  77	 101
  77	 104
  77	 107
  77	 116
  77	 118
  77	 119
  78	  90
  78	  98
  78	 101
  79	  86
  79	  93
  79	  98
  79	 104
  79	 115
  80	  90
  80	 106
  80	 113
  80	 115
  80	 118
  81	 102
  81	 107
  81	 111
  81	 112
  81	 113
  81	 114
  82	  89
  82	  96
  82	 110
  82	 119
  83	  91
  83	  97
  83	 111
  83	 117
  84	 106
  85	  90
  85	  91
  85	  97
  85	 107
  86	 105
  86	 114
  86	 117
  87	  88
  87	  90
  87	 104
  87	 105
  87	 110
  87	 117
  88	  89
  88	 105
  88	 109
  88	 116
  88	 119
  89	  90
  89	  98
  89	 114
  89	 117
  89	 119
  90	  93
  90	 103
  90	 104
  90	 111
  90	 115
  91	 107
  91	 115
  91	 119
  92	 109
  92	 111
  92	 113
  93	  95
  93	  98
  93	 103
  94	 100
  95	  98
  95	 107
  96	  99
  96	 113
  97	 110
  99	 109
  99	 118
 100	 106
 100	 108
 100	 111
 100	 115
 101	 106
 101	 117
 102	 105
 102	 106
 102	 110
 104	 109
 105	 106
 105	 113
 105	 117
 106	 118
 108	 113
 108	 118
 109	 115
 109	 118
 114	 119
;
